
===== New CPLEX run =====
Instance: /home/yorig/tuner/mpils-tests/instances/miplib/medium-2/supportcase40.mps
Config: /scratch/yorig/mpils-results-grid-seconds-10-no-mip-start/medium-2/2proc/seed-1/8_supportcase40_seed-1_20260503_052851/iterated_local_search/run_2_worker_1/ils_config_11761706312445519538.prm
========================

Selected objective sense:  MINIMIZE
Selected objective  name:  obj
Selected RHS        name:  rhs
Selected bound      name:  bnd
Version identifier: 22.1.2.0 | 2024-11-26 | 0edbb82fd
CPXPARAM_Threads                                 8
CPXPARAM_Parallel                                1
CPXPARAM_MIP_Cuts_FlowCovers                     -1
CPXPARAM_MIP_Cuts_Implied                        1
CPXPARAM_MIP_Cuts_GUBCovers                      2
CPXPARAM_MIP_Limits_GomoryCand                   400
CPXPARAM_MIP_Cuts_PathCut                        2
CPXPARAM_MIP_Cuts_MIRCut                         -1
CPXPARAM_MIP_Cuts_Disjunctive                    2
CPXPARAM_Emphasis_MIP                            4
CPXPARAM_MIP_Strategy_RINSHeur                   -1
CPXPARAM_TimeLimit                               10
1 of 23 MIP starts provided solutions.
MIP start 'm1' defined initial solution with objective 24299.3439.
Tried aggregator 2 times.
MIP Presolve eliminated 29622 rows and 11272 columns.
MIP Presolve modified 700 coefficients.
Aggregator did 100 substitutions.
Reduced MIP has 8469 rows, 5068 columns, and 24192 nonzeros.
Reduced MIP has 300 binaries, 0 generals, 0 SOSs, and 0 indicators.
Presolve time = 0.01 sec. (31.66 ticks)
Probing time = 0.09 sec. (1.10 ticks)
Tried aggregator 1 time.
Detecting symmetries...
Reduced MIP has 8469 rows, 5068 columns, and 24192 nonzeros.
Reduced MIP has 300 binaries, 0 generals, 0 SOSs, and 0 indicators.
Presolve time = 0.01 sec. (12.02 ticks)
Probing time = 0.08 sec. (0.85 ticks)
Clique table members: 100.
MIP emphasis: hidden feasible solutions.
MIP search method: dynamic search.
Parallel mode: deterministic, using up to 8 threads.
Root relaxation solution time = 0.12 sec. (175.06 ticks)

        Nodes                                         Cuts/
   Node  Left     Objective  IInf  Best Integer    Best Bound    ItCnt     Gap

*     0+    0                        24299.3439     3301.6156            86.41%
      0     0    22536.4834    38    24299.3439    22536.4834     4631    7.25%
      0     0    22643.5396    38    24299.3439     Fract: 32     4950    6.81%
      0     0    22722.8868    39    24299.3439     Fract: 30     5122    6.49%
Detecting symmetries...
      0     2    22722.8868    39    24299.3439    22778.0650     5122    6.26%
Elapsed time = 1.32 sec. (717.63 ticks, tree = 0.02 MB, solutions = 1)
     11     4    22750.9908    39    24299.3439    22778.0650     5378    6.26%
     66    24    24065.8029    27    24299.3439    22778.0650    11220    6.26%
    127    52    23400.0916    32    24299.3439    22778.0650    21673    6.26%
    226    91    22976.4598    46    24299.3439    22778.0650    27821    6.26%
    311   117    24118.4816    29    24299.3439    22778.0650    32446    6.26%
    382   148        cutoff          24299.3439    22778.0650    41320    6.26%
    479   199    24241.2592    10    24299.3439    22778.0650    50315    6.26%
    541   230    23403.2311    37    24299.3439    22976.7572    61316    5.44%
    624   262    24264.9607    20    24299.3439    22976.7572    62754    5.44%
    926   437        cutoff          24299.3439    23015.0771    91873    5.29%
Elapsed time = 5.73 sec. (3864.22 ticks, tree = 4.00 MB, solutions = 1)
   1329   541        cutoff          24299.3439    23042.4571   114511    5.17%
   1856   888        cutoff          24299.3439    23061.2709   147518    5.10%

GUB cover cuts applied:  0
Implied bound cuts applied:  0
Flow path cuts applied:  0
Gomory fractional cuts applied:  76
Disjunctive cuts applied:  0
Cone linearizations applied:  0

Root node processing (before b&c):
  Real time             =    1.19 sec. (712.36 ticks)
Parallel b&c, 8 threads:
  Real time             =    8.82 sec. (6058.48 ticks)
  Sync time (average)   =    2.03 sec.
  Wait time (average)   =    0.00 sec.
                          ------------
Total (root+branch&cut) =   10.01 sec. (6770.83 ticks)
Gap: 4.96%
Upper bound: 24299.3
Lower bound: 23095.3
End of CPLEX run. Time: 10.0079 seconds

===== New CPLEX run =====
Instance: /home/yorig/tuner/mpils-tests/instances/miplib/medium-2/supportcase40.mps
Config: /scratch/yorig/mpils-results-grid-seconds-10-no-mip-start/medium-2/2proc/seed-1/8_supportcase40_seed-1_20260503_052851/iterated_local_search/run_2_worker_1/ils_config_9322157265817448989.prm
========================

Selected objective sense:  MINIMIZE
Selected objective  name:  obj
Selected RHS        name:  rhs
Selected bound      name:  bnd
Version identifier: 22.1.2.0 | 2024-11-26 | 0edbb82fd
CPXPARAM_Threads                                 8
CPXPARAM_Parallel                                1
CPXPARAM_MIP_Cuts_FlowCovers                     -1
CPXPARAM_MIP_Cuts_Implied                        1
CPXPARAM_MIP_Cuts_GUBCovers                      2
CPXPARAM_MIP_Cuts_PathCut                        2
CPXPARAM_MIP_Cuts_MIRCut                         -1
CPXPARAM_MIP_Cuts_Disjunctive                    2
CPXPARAM_Emphasis_MIP                            4
CPXPARAM_MIP_Strategy_RINSHeur                   -1
CPXPARAM_TimeLimit                               10
1 of 23 MIP starts provided solutions.
MIP start 'm1' defined initial solution with objective 24299.3439.
Tried aggregator 2 times.
MIP Presolve eliminated 29622 rows and 11272 columns.
MIP Presolve modified 700 coefficients.
Aggregator did 100 substitutions.
Reduced MIP has 8469 rows, 5068 columns, and 24192 nonzeros.
Reduced MIP has 300 binaries, 0 generals, 0 SOSs, and 0 indicators.
Presolve time = 0.01 sec. (31.66 ticks)
Probing time = 0.11 sec. (1.10 ticks)
Tried aggregator 1 time.
Detecting symmetries...
Reduced MIP has 8469 rows, 5068 columns, and 24192 nonzeros.
Reduced MIP has 300 binaries, 0 generals, 0 SOSs, and 0 indicators.
Presolve time = 0.01 sec. (12.02 ticks)
Probing time = 0.09 sec. (0.85 ticks)
Clique table members: 100.
MIP emphasis: hidden feasible solutions.
MIP search method: dynamic search.
Parallel mode: deterministic, using up to 8 threads.
Root relaxation solution time = 0.14 sec. (175.06 ticks)

        Nodes                                         Cuts/
   Node  Left     Objective  IInf  Best Integer    Best Bound    ItCnt     Gap

*     0+    0                        24299.3439     3301.6156            86.41%
      0     0    22536.4834    38    24299.3439    22536.4834     4631    7.25%
      0     0    22643.5396    38    24299.3439     Fract: 32     4950    6.81%
      0     0    22722.8868    39    24299.3439     Fract: 30     5122    6.49%
Detecting symmetries...
      0     2    22722.8868    39    24299.3439    22778.0650     5122    6.26%
Elapsed time = 1.39 sec. (717.63 ticks, tree = 0.02 MB, solutions = 1)
     11     4    22750.9908    39    24299.3439    22778.0650     5378    6.26%
     66    24    24065.8029    27    24299.3439    22778.0650    11220    6.26%
    127    52    23400.0916    32    24299.3439    22778.0650    21673    6.26%
    226    91    22976.4598    46    24299.3439    22778.0650    27821    6.26%
    311   117    24118.4816    29    24299.3439    22778.0650    32446    6.26%
    382   148        cutoff          24299.3439    22778.0650    41320    6.26%
    479   199    24241.2592    10    24299.3439    22778.0650    50315    6.26%
    541   230    23403.2311    37    24299.3439    22976.7572    61316    5.44%
    624   262    24264.9607    20    24299.3439    22976.7572    62754    5.44%
    926   437        cutoff          24299.3439    23015.0771    91873    5.29%
Elapsed time = 6.08 sec. (3864.22 ticks, tree = 4.00 MB, solutions = 1)
   1329   541        cutoff          24299.3439    23042.4571   114511    5.17%
   1856   888        cutoff          24299.3439    23061.2709   147518    5.10%

GUB cover cuts applied:  0
Implied bound cuts applied:  0
Flow path cuts applied:  0
Gomory fractional cuts applied:  76
Disjunctive cuts applied:  0
Cone linearizations applied:  0

Root node processing (before b&c):
  Real time             =    1.18 sec. (712.35 ticks)
Parallel b&c, 8 threads:
  Real time             =    8.82 sec. (5870.00 ticks)
  Sync time (average)   =    2.19 sec.
  Wait time (average)   =    0.00 sec.
                          ------------
Total (root+branch&cut) =   10.00 sec. (6582.35 ticks)
Gap: 5.05%
Upper bound: 24299.3
Lower bound: 23071.6
End of CPLEX run. Time: 10.0043 seconds

===== New CPLEX run =====
Instance: /home/yorig/tuner/mpils-tests/instances/miplib/medium-2/supportcase40.mps
Config: /scratch/yorig/mpils-results-grid-seconds-10-no-mip-start/medium-2/2proc/seed-1/8_supportcase40_seed-1_20260503_052851/iterated_local_search/run_2_worker_1/ils_config_10138218092571655369.prm
========================

Selected objective sense:  MINIMIZE
Selected objective  name:  obj
Selected RHS        name:  rhs
Selected bound      name:  bnd
Version identifier: 22.1.2.0 | 2024-11-26 | 0edbb82fd
CPXPARAM_Threads                                 8
CPXPARAM_Parallel                                1
CPXPARAM_MIP_Cuts_FlowCovers                     -1
CPXPARAM_MIP_Cuts_Implied                        1
CPXPARAM_MIP_Cuts_GUBCovers                      2
CPXPARAM_MIP_Limits_GomoryCand                   400
CPXPARAM_MIP_Cuts_PathCut                        2
CPXPARAM_MIP_Cuts_MIRCut                         1
CPXPARAM_MIP_Cuts_Disjunctive                    2
CPXPARAM_Emphasis_MIP                            4
CPXPARAM_MIP_Strategy_RINSHeur                   -1
CPXPARAM_TimeLimit                               10
1 of 23 MIP starts provided solutions.
MIP start 'm1' defined initial solution with objective 24299.3439.
Tried aggregator 2 times.
MIP Presolve eliminated 29622 rows and 11272 columns.
MIP Presolve modified 700 coefficients.
Aggregator did 100 substitutions.
Reduced MIP has 8469 rows, 5068 columns, and 24192 nonzeros.
Reduced MIP has 300 binaries, 0 generals, 0 SOSs, and 0 indicators.
Presolve time = 0.01 sec. (31.66 ticks)
Probing time = 0.18 sec. (1.10 ticks)
Tried aggregator 1 time.
Detecting symmetries...
Reduced MIP has 8469 rows, 5068 columns, and 24192 nonzeros.
Reduced MIP has 300 binaries, 0 generals, 0 SOSs, and 0 indicators.
Presolve time = 0.01 sec. (12.02 ticks)
Probing time = 0.09 sec. (0.85 ticks)
Clique table members: 100.
MIP emphasis: hidden feasible solutions.
MIP search method: dynamic search.
Parallel mode: deterministic, using up to 8 threads.
Root relaxation solution time = 0.17 sec. (175.06 ticks)

        Nodes                                         Cuts/
   Node  Left     Objective  IInf  Best Integer    Best Bound    ItCnt     Gap

*     0+    0                        24299.3439     3301.6156            86.41%
      0     0    22536.4834    38    24299.3439    22536.4834     4631    7.25%
      0     0    22643.5396    38    24299.3439      Cuts: 34     4896    6.81%
      0     0    22702.3791    38    24299.3439      Cuts: 29     5053    6.57%
      0     0    22702.3791    38    24299.3439    MIRcuts: 1     5054    6.57%
      0     0    22720.6527    42    24299.3439     Fract: 20     5097    6.42%
      0     0    22767.5117    42    24299.3439      Cuts: 34     5185    6.30%
Detecting symmetries...
      0     0    22786.5371    43    24299.3439       Cuts: 7     5229    6.23%
      0     0    22787.0414    43    24299.3439    MIRcuts: 3     5242    6.22%
Detecting symmetries...
      0     2    22787.0414    43    24299.3439    22904.8287     5242    5.74%
Elapsed time = 2.04 sec. (1169.58 ticks, tree = 0.02 MB, solutions = 1)
     10    12    23790.5332    25    24299.3439    22904.8287     7166    5.74%
     42    20        cutoff          24299.3439    22904.8287     9581    5.74%
    106    47    24184.1956    11    24299.3439    22904.8287    18509    5.74%
    200    55    24296.5592     4    24299.3439    22904.8287    23794    5.74%
    318    81    23849.1776    25    24299.3439    22904.8287    31315    5.74%
    396   117    24277.8760    20    24299.3439    22904.8287    39964    5.74%
    442   142    23298.6260    34    24299.3439    22904.8287    51561    5.74%
    499   145    24205.5423    27    24299.3439    22904.8287    55029    5.74%
    547   167    24273.1015    27    24299.3439    22904.8287    66707    5.74%
    858   292        cutoff          24299.3439    23035.9559    90776    5.20%
Elapsed time = 6.56 sec. (4296.29 ticks, tree = 0.44 MB, solutions = 1)
   1246   508    24139.9347    32    24299.3439    23054.4362   124641    5.12%
   1677   804        cutoff          24299.3439    23066.8007   156710    5.07%

GUB cover cuts applied:  0
Implied bound cuts applied:  0
Mixed integer rounding cuts applied:  22
Flow path cuts applied:  0
Gomory fractional cuts applied:  98
Disjunctive cuts applied:  0
Cone linearizations applied:  0

Root node processing (before b&c):
  Real time             =    1.92 sec. (1163.58 ticks)
Parallel b&c, 8 threads:
  Real time             =    8.08 sec. (5511.86 ticks)
  Sync time (average)   =    1.82 sec.
  Wait time (average)   =    0.00 sec.
                          ------------
Total (root+branch&cut) =   10.00 sec. (6675.44 ticks)
Gap: 4.67%
Upper bound: 24299.3
Lower bound: 23165.1
End of CPLEX run. Time: 10.0059 seconds

===== New CPLEX run =====
Instance: /home/yorig/tuner/mpils-tests/instances/miplib/medium-2/supportcase40.mps
Config: /scratch/yorig/mpils-results-grid-seconds-10-no-mip-start/medium-2/2proc/seed-1/8_supportcase40_seed-1_20260503_052851/iterated_local_search/run_2_worker_1/ils_config_13747681244922070231.prm
========================

Selected objective sense:  MINIMIZE
Selected objective  name:  obj
Selected RHS        name:  rhs
Selected bound      name:  bnd
Version identifier: 22.1.2.0 | 2024-11-26 | 0edbb82fd
CPXPARAM_Threads                                 8
CPXPARAM_Parallel                                1
CPXPARAM_MIP_Cuts_FlowCovers                     -1
CPXPARAM_MIP_Cuts_Implied                        1
CPXPARAM_MIP_Cuts_GUBCovers                      2
CPXPARAM_MIP_Limits_GomoryCand                   400
CPXPARAM_MIP_Cuts_PathCut                        2
CPXPARAM_MIP_Cuts_MIRCut                         1
CPXPARAM_MIP_Cuts_Disjunctive                    2
CPXPARAM_Emphasis_MIP                            4
CPXPARAM_MIP_Strategy_RINSHeur                   500
CPXPARAM_TimeLimit                               10
1 of 23 MIP starts provided solutions.
MIP start 'm1' defined initial solution with objective 24299.3439.
Tried aggregator 2 times.
MIP Presolve eliminated 29622 rows and 11272 columns.
MIP Presolve modified 700 coefficients.
Aggregator did 100 substitutions.
Reduced MIP has 8469 rows, 5068 columns, and 24192 nonzeros.
Reduced MIP has 300 binaries, 0 generals, 0 SOSs, and 0 indicators.
Presolve time = 0.01 sec. (31.66 ticks)
Probing time = 0.11 sec. (1.10 ticks)
Tried aggregator 1 time.
Detecting symmetries...
Reduced MIP has 8469 rows, 5068 columns, and 24192 nonzeros.
Reduced MIP has 300 binaries, 0 generals, 0 SOSs, and 0 indicators.
Presolve time = 0.01 sec. (12.02 ticks)
Probing time = 0.19 sec. (0.85 ticks)
Clique table members: 100.
MIP emphasis: hidden feasible solutions.
MIP search method: dynamic search.
Parallel mode: deterministic, using up to 8 threads.
Root relaxation solution time = 0.13 sec. (175.06 ticks)

        Nodes                                         Cuts/
   Node  Left     Objective  IInf  Best Integer    Best Bound    ItCnt     Gap

*     0+    0                        24299.3439     3301.6156            86.41%
      0     0    22536.4834    38    24299.3439    22536.4834     4631    7.25%
      0     0    22643.5396    38    24299.3439      Cuts: 34     4896    6.81%
      0     0    22702.3791    38    24299.3439      Cuts: 29     5053    6.57%
      0     0    22702.3791    38    24299.3439    MIRcuts: 1     5054    6.57%
      0     0    22720.6527    42    24299.3439     Fract: 20     5097    6.42%
      0     0    22767.5117    42    24299.3439      Cuts: 34     5185    6.30%
Detecting symmetries...
      0     0    22786.5371    43    24299.3439       Cuts: 7     5229    6.23%
      0     0    22787.0414    43    24299.3439    MIRcuts: 3     5242    6.22%
Detecting symmetries...
      0     2    22787.0414    43    24299.3439    23041.2827     5242    5.18%
Elapsed time = 3.65 sec. (2318.67 ticks, tree = 0.02 MB, solutions = 1)
     10    12    23790.5332    25    24299.3439    23041.2827     7166    5.18%
     29    20    24120.4286    29    24299.3439    23041.2827    10020    5.18%
     85    36    24149.9953    31    24299.3439    23041.2827    20147    5.18%
    157    47        cutoff          24299.3439    23041.2827    24356    5.18%
    227    75        cutoff          24299.3439    23041.2827    32775    5.18%
    349   105    24296.4805    28    24299.3439    23098.6105    36872    4.94%
    521   155    24177.2454     8    24299.3439    23098.6105    43153    4.94%
    717   223    23758.8989    38    24299.3439    23098.6105    46922    4.94%
*   803+  302                        24256.5176    23098.6105             4.77%
    859   313        cutoff          24256.5176    23098.6105    54571    4.77%
   1612   733    24236.2465    16    24256.5176    23186.8059    81389    4.41%
Elapsed time = 8.19 sec. (5443.81 ticks, tree = 35.51 MB, solutions = 2)
   2049   951    24178.2648    24    24256.5176    23245.8029    92550    4.17%

GUB cover cuts applied:  0
Implied bound cuts applied:  0
Mixed integer rounding cuts applied:  58
Flow path cuts applied:  0
Gomory fractional cuts applied:  98
Disjunctive cuts applied:  0
Cone linearizations applied:  0

Root node processing (before b&c):
  Real time             =    3.54 sec. (2312.89 ticks)
Parallel b&c, 8 threads:
  Real time             =    6.47 sec. (4638.25 ticks)
  Sync time (average)   =    1.66 sec.
  Wait time (average)   =    0.00 sec.
                          ------------
Total (root+branch&cut) =   10.01 sec. (6951.14 ticks)
Gap: 4.16%
Upper bound: 24256.5
Lower bound: 23246.5
End of CPLEX run. Time: 10.0098 seconds

===== New CPLEX run =====
Instance: /home/yorig/tuner/mpils-tests/instances/miplib/medium-2/supportcase40.mps
Config: /scratch/yorig/mpils-results-grid-seconds-10-no-mip-start/medium-2/2proc/seed-1/8_supportcase40_seed-1_20260503_052851/iterated_local_search/run_2_worker_1/ils_config_9613080555753190680.prm
========================

Selected objective sense:  MINIMIZE
Selected objective  name:  obj
Selected RHS        name:  rhs
Selected bound      name:  bnd
Version identifier: 22.1.2.0 | 2024-11-26 | 0edbb82fd
CPXPARAM_Threads                                 8
CPXPARAM_Parallel                                1
CPXPARAM_MIP_Cuts_FlowCovers                     -1
CPXPARAM_MIP_Cuts_Implied                        1
CPXPARAM_MIP_Cuts_GUBCovers                      2
CPXPARAM_MIP_Limits_GomoryCand                   800
CPXPARAM_MIP_Cuts_PathCut                        2
CPXPARAM_MIP_Cuts_MIRCut                         1
CPXPARAM_MIP_Cuts_Disjunctive                    2
CPXPARAM_Emphasis_MIP                            4
CPXPARAM_MIP_Strategy_RINSHeur                   500
CPXPARAM_TimeLimit                               10
1 of 23 MIP starts provided solutions.
MIP start 'm1' defined initial solution with objective 24299.3439.
Tried aggregator 2 times.
MIP Presolve eliminated 29622 rows and 11272 columns.
MIP Presolve modified 700 coefficients.
Aggregator did 100 substitutions.
Reduced MIP has 8469 rows, 5068 columns, and 24192 nonzeros.
Reduced MIP has 300 binaries, 0 generals, 0 SOSs, and 0 indicators.
Presolve time = 0.01 sec. (31.66 ticks)
Probing time = 0.04 sec. (1.10 ticks)
Tried aggregator 1 time.
Detecting symmetries...
Reduced MIP has 8469 rows, 5068 columns, and 24192 nonzeros.
Reduced MIP has 300 binaries, 0 generals, 0 SOSs, and 0 indicators.
Presolve time = 0.01 sec. (12.02 ticks)
Probing time = 0.09 sec. (0.85 ticks)
Clique table members: 100.
MIP emphasis: hidden feasible solutions.
MIP search method: dynamic search.
Parallel mode: deterministic, using up to 8 threads.
Root relaxation solution time = 0.15 sec. (175.06 ticks)

        Nodes                                         Cuts/
   Node  Left     Objective  IInf  Best Integer    Best Bound    ItCnt     Gap

*     0+    0                        24299.3439     3301.6156            86.41%
      0     0    22536.4834    38    24299.3439    22536.4834     4631    7.25%
      0     0    22643.5396    38    24299.3439      Cuts: 34     4896    6.81%
      0     0    22702.3791    38    24299.3439      Cuts: 29     5053    6.57%
      0     0    22702.3791    38    24299.3439    MIRcuts: 1     5054    6.57%
      0     0    22720.6527    42    24299.3439     Fract: 20     5097    6.42%
      0     0    22767.5117    42    24299.3439      Cuts: 34     5185    6.30%
Detecting symmetries...
      0     0    22786.5371    43    24299.3439       Cuts: 7     5229    6.23%
      0     0    22787.0414    43    24299.3439    MIRcuts: 3     5242    6.22%
Detecting symmetries...
      0     2    22787.0414    43    24299.3439    23041.2827     5242    5.18%
Elapsed time = 3.46 sec. (2318.67 ticks, tree = 0.02 MB, solutions = 1)
     10    12    23790.5332    25    24299.3439    23041.2827     7166    5.18%
     29    20    24120.4286    29    24299.3439    23041.2827    10020    5.18%
     85    36    24149.9953    31    24299.3439    23041.2827    20147    5.18%
    157    47        cutoff          24299.3439    23041.2827    24356    5.18%
    227    75        cutoff          24299.3439    23041.2827    32775    5.18%
    349   105    24296.4805    28    24299.3439    23098.6105    36872    4.94%
    521   155    24177.2454     8    24299.3439    23098.6105    43153    4.94%
    717   223    23758.8989    38    24299.3439    23098.6105    46922    4.94%
*   803+  302                        24256.5176    23098.6105             4.77%
    859   313        cutoff          24256.5176    23098.6105    54571    4.77%
   1612   733    24236.2465    16    24256.5176    23186.8059    81389    4.41%
Elapsed time = 8.04 sec. (5443.81 ticks, tree = 35.51 MB, solutions = 2)
   2049   951    24178.2648    24    24256.5176    23245.8029    92550    4.17%

GUB cover cuts applied:  0
Implied bound cuts applied:  0
Mixed integer rounding cuts applied:  58
Flow path cuts applied:  0
Gomory fractional cuts applied:  98
Disjunctive cuts applied:  0
Cone linearizations applied:  0

Root node processing (before b&c):
  Real time             =    3.38 sec. (2312.89 ticks)
Parallel b&c, 8 threads:
  Real time             =    6.63 sec. (4452.17 ticks)
  Sync time (average)   =    2.06 sec.
  Wait time (average)   =    0.00 sec.
                          ------------
Total (root+branch&cut) =   10.01 sec. (6765.06 ticks)
Gap: 4.16%
Upper bound: 24256.5
Lower bound: 23246.5
End of CPLEX run. Time: 10.0106 seconds

===== New CPLEX run =====
Instance: /home/yorig/tuner/mpils-tests/instances/miplib/medium-2/supportcase40.mps
Config: /scratch/yorig/mpils-results-grid-seconds-10-no-mip-start/medium-2/2proc/seed-1/8_supportcase40_seed-1_20260503_052851/iterated_local_search/run_2_worker_1/ils_config_11893138583227259472.prm
========================

Selected objective sense:  MINIMIZE
Selected objective  name:  obj
Selected RHS        name:  rhs
Selected bound      name:  bnd
Version identifier: 22.1.2.0 | 2024-11-26 | 0edbb82fd
CPXPARAM_Threads                                 8
CPXPARAM_Parallel                                1
CPXPARAM_MIP_Cuts_FlowCovers                     -1
CPXPARAM_MIP_Cuts_Implied                        1
CPXPARAM_MIP_Limits_GomoryCand                   400
CPXPARAM_MIP_Cuts_PathCut                        2
CPXPARAM_MIP_Cuts_MIRCut                         1
CPXPARAM_MIP_Cuts_Disjunctive                    2
CPXPARAM_Emphasis_MIP                            4
CPXPARAM_MIP_Strategy_RINSHeur                   500
CPXPARAM_TimeLimit                               10
1 of 23 MIP starts provided solutions.
MIP start 'm1' defined initial solution with objective 24299.3439.
Tried aggregator 2 times.
MIP Presolve eliminated 29622 rows and 11272 columns.
MIP Presolve modified 700 coefficients.
Aggregator did 100 substitutions.
Reduced MIP has 8469 rows, 5068 columns, and 24192 nonzeros.
Reduced MIP has 300 binaries, 0 generals, 0 SOSs, and 0 indicators.
Presolve time = 0.01 sec. (31.66 ticks)
Probing time = 0.14 sec. (1.10 ticks)
Tried aggregator 1 time.
Detecting symmetries...
Reduced MIP has 8469 rows, 5068 columns, and 24192 nonzeros.
Reduced MIP has 300 binaries, 0 generals, 0 SOSs, and 0 indicators.
Presolve time = 0.01 sec. (12.02 ticks)
Probing time = 0.10 sec. (0.85 ticks)
Clique table members: 100.
MIP emphasis: hidden feasible solutions.
MIP search method: dynamic search.
Parallel mode: deterministic, using up to 8 threads.
Root relaxation solution time = 0.12 sec. (175.06 ticks)

        Nodes                                         Cuts/
   Node  Left     Objective  IInf  Best Integer    Best Bound    ItCnt     Gap

*     0+    0                        24299.3439     3301.6156            86.41%
      0     0    22536.4834    38    24299.3439    22536.4834     4631    7.25%
      0     0    22643.5396    38    24299.3439      Cuts: 34     4896    6.81%
      0     0    22702.3791    38    24299.3439      Cuts: 29     5053    6.57%
      0     0    22702.3791    38    24299.3439    MIRcuts: 1     5054    6.57%
      0     0    22720.6527    42    24299.3439     Fract: 20     5097    6.42%
      0     0    22767.5117    42    24299.3439      Cuts: 34     5185    6.30%
Detecting symmetries...
      0     0    22786.5371    43    24299.3439       Cuts: 7     5229    6.23%
      0     0    22787.0414    43    24299.3439    MIRcuts: 3     5242    6.22%
Detecting symmetries...
      0     2    22787.0414    43    24299.3439    23041.2827     5242    5.18%
Elapsed time = 3.27 sec. (2318.67 ticks, tree = 0.02 MB, solutions = 1)
     10    12    23790.5332    25    24299.3439    23041.2827     7166    5.18%
     29    20    24120.4286    29    24299.3439    23041.2827    10020    5.18%
     85    36    24149.9953    31    24299.3439    23041.2827    20147    5.18%
    157    47        cutoff          24299.3439    23041.2827    24356    5.18%
    227    75        cutoff          24299.3439    23041.2827    32775    5.18%
    349   105    24296.4805    28    24299.3439    23098.6105    36872    4.94%
    521   155    24177.2454     8    24299.3439    23098.6105    43153    4.94%
    717   223    23758.8989    38    24299.3439    23098.6105    46922    4.94%
*   803+  302                        24256.5176    23098.6105             4.77%
    859   313        cutoff          24256.5176    23098.6105    54571    4.77%
   1612   733    24236.2465    16    24256.5176    23186.8059    81389    4.41%
Elapsed time = 7.63 sec. (5443.81 ticks, tree = 35.51 MB, solutions = 2)
   2049   951    24178.2648    24    24256.5176    23245.8029    92550    4.17%

Implied bound cuts applied:  0
Mixed integer rounding cuts applied:  58
Flow path cuts applied:  0
Gomory fractional cuts applied:  98
Disjunctive cuts applied:  0
Cone linearizations applied:  0

Root node processing (before b&c):
  Real time             =    3.25 sec. (2312.89 ticks)
Parallel b&c, 8 threads:
  Real time             =    6.75 sec. (4861.96 ticks)
  Sync time (average)   =    1.88 sec.
  Wait time (average)   =    0.00 sec.
                          ------------
Total (root+branch&cut) =   10.00 sec. (7174.85 ticks)
Gap: 4.16%
Upper bound: 24256.5
Lower bound: 23246.5
End of CPLEX run. Time: 10.0064 seconds
